Route #1: 26 41 32 28 25 16 27 15 3 36 40 37 6
Route #2: 18 21 29 13 2 44 34 4
Route #3: 33 38 43 9 10 23 11 31 5 12 24 39
Route #4: 17 19 30 8 22 20 42 14 35 7
Route #5: 1
Route #6: 
Route #7: 
cost 908.6061242800408
